NAME : gr96Preorder.11789.tour
COMMENT : Length = 11789
COMMENT : Found by LKH [Keld Helsgaun] Thu Apr 23 00:25:12 2020
TYPE : TOUR
DIMENSION : 96
TOUR_SECTION
1
31
32
36
37
38
35
34
44
33
11
45
49
43
42
41
40
39
79
80
91
83
82
81
70
69
57
56
59
71
72
73
75
76
77
74
84
85
86
87
90
89
88
78
92
93
95
94
96
65
66
68
67
64
63
62
61
60
58
54
53
55
51
52
50
46
47
48
25
24
23
27
28
26
22
21
19
18
20
17
16
15
14
13
12
10
9
7
8
6
5
4
3
2
29
30
-1
EOF
